9 92 18 83 59 49 23 45 95 84 69 76 96 98 94 73 97 89 91 85 80 79 33 71 72 93 41 90 8 53 28 16 75 44 2 42 82 37 86 63 58 77 78 81 54 70 65 67 64 66 57 27 68 61 39 38 60 88 55 48 24 87 52 43 99 40 51 32 30 26 56 3 50 10 25 46 29 14 5 11 12 20 15 17 62 4 6 13 19 21 22 36 1 7 47 74 34 31 35 0 

